
Gurobi 8.1.1 (win64, Python) logging started 05/22/19 18:09:49

Academic license - for non-commercial use only

Gurobi 8.1.1 (win64, Python) logging started 05/22/19 18:11:42

Academic license - for non-commercial use only

Gurobi 8.1.1 (win64, Python) logging started 05/22/19 18:23:13

Academic license - for non-commercial use only

Gurobi 8.1.1 (win64, Python) logging started 05/22/19 18:29:12

Academic license - for non-commercial use only
